Route #1: 64 76 63 85 51 84 0 88 78 73 79 60
Route #2: 15 16 47 14 12 53 98 0 57 77 25 48 89 91
Route #3: 61 42 44 36 40 0 69 55 68 0 17 13 97 58 74
Route #4: 65 83 23 21 18 20 0 34 26 32 50
Route #5: 52 75 59 87 86 99 90 0 49 19 22 24
Route #6: 2 45 5 46 8 7 0 81 54 37 35 43 70
Route #7: 95 62 33 30 28 27 29 31 67 0 82 9 11 10 0 66 56 94 93 96 80
Route #8: 92 71 72 38 39 41 0 6 4 3 1 100
Cost: 17341
Optimal: True
